3 
4  58 
5  14 29 44 59 
6  14 29 44 59 
7  14 29 44 59 
8  14 29 44 59 
9  14 29 44 59 
10  14 29 44 59 
11  14 29 44 59 
12  14 29 44 59 
13  16 31 46 
14  01 16 31 46 
15  01 16 31 46 
16  01 16 31 46 
17  01 16 31 46 
18  01 16 31 46 
19  01 14 29 44 59 
20  14 29 44 59 
21  14 29 44 59 
22  16 34 
23  04 
0 
